Route #1: 0 54 59 41 48 60 0
Route #2: 0 2 49 3 31 43 61 10 0
Route #3: 0 53 58 35 17 6 39 62 47 9 42 0
Route #4: 0 50 37 23 18 38 0
Route #5: 0 56 44 12 4 21 0
Route #6: 0 26 29 16 57 22 15 11 0
Route #7: 0 19 20 30 5 45 34 13 25 7 0
Route #8: 0 28 55 32 40 14 51 52 1 0
Route #9: 0 27 8 24 36 46 33 0
Cost 2321:
